50 8
800 598
408 512
235 648
559 327
39 310
84 780
137 273
342 700
160 301
204 359
621 532
378 481
554 632
106 479
230 557
516 585
550 401
621 550
966 871
448 629
270 763
348 631
167 506
234 712
262 924
834 690
483 182
300 607
734 430
453 604
125 381
889 982
756 585
355 358
238 426
381 252
464 36
279 870
219 747
238 301
729 826
392 445
593 163
63 526
799 511
84 496
560 126
634 435
200 980
553 190
